NAME : pairopt
TYPE : ACVRP
DIMENSION : 6
EDGE_WEIGHT_TYPE : EXPLICIT
EDGE_WEIGHT_FORMAT : FULL_MATRIX
CAPACITY : 11250
VEHICLES : 2
EDGE_WEIGHT_SECTION
100000 -100000 -100000 100000 100000 100000 
100000 100000 1000000 50625 50182 68 
100000 1000000 100000 50571 50231 24 
0 50625 50571 100000 947 101118 
0 50182 50231 947 100000 100500 
0 68 24 101118 100500 100000 
DEMAND_SECTION
1 0
2 0
3 0
4 5000
5 5000
6 5000
DEPOT_SECTION
1
EOF